(echo "This should evaluate to X = ""hello "" Y = ""world"" ") 
(declare-const X String)
(declare-const Y String)
(assert (str.prefixof "hello" X))
(assert (str.suffixof "world" Y))
(assert (str.contains X " "))
(assert (<= (+ (str.len X) (str.len Y)) 12))
(assert (> (str.len X) 3))
(check-sat)
(get-model)
